Problem:    farmok_picaok
Rows:       6
Columns:    6
Non-zeros:  18
Status:     OPTIMAL
Objective:  koltseg = 260000 (MINimum)

   No.   Row name   St   Activity     Lower bound   Upper bound    Marginal
------ ------------ -- ------------- ------------- ------------- -------------
     1 supply[Vac]  B            150                         150 
     2 supply[Kecskemet]
                    NU           150                         150          -400 
     3 supply[Sopron]
                    NU           100                         100         -1200 
     4 demand[Gyor] NL           250           250                         800 
     5 demand[Szolnok]
                    NL           150           150                        1600 
     6 koltseg      B         260000                             

   No. Column name  St   Activity     Lower bound   Upper bound    Marginal
------ ------------ -- ------------- ------------- ------------- -------------
     1 szallitasok[Vac,Gyor]
                    B            100             0               
     2 szallitasok[Vac,Szolnok]
                    B             50             0               
     3 szallitasok[Kecskemet,Gyor]
                    B            150             0               
     4 szallitasok[Kecskemet,Szolnok]
                    NL             0             0                         700 
     5 szallitasok[Sopron,Gyor]
                    NL             0             0                        1600 
     6 szallitasok[Sopron,Szolnok]
                    B            100             0               

Karush-Kuhn-Tucker optimality conditions:

KKT.PE: max.abs.err = 0.00e+00 on row 0
        max.rel.err = 0.00e+00 on row 0
        High quality

KKT.PB: max.abs.err = 0.00e+00 on row 0
        max.rel.err = 0.00e+00 on row 0
        High quality

KKT.DE: max.abs.err = 1.14e-13 on column 3
        max.rel.err = 7.10e-17 on column 3
        High quality

KKT.DB: max.abs.err = 0.00e+00 on row 0
        max.rel.err = 0.00e+00 on row 0
        High quality

End of output
